(set-logic QF_SLIA)
(set-option :produce-models true)
(declare-const X String)
; ad\x2Esearchsquire\x2Ecom[^\n\r]*User-Agent\x3A
(assert (str.in_re X (re.++ (str.to_re "ad.searchsquire.com") (re.* (re.union (str.to_re "\u{0a}") (str.to_re "\u{0d}"))) (str.to_re "User-Agent:\u{0a}"))))
; ^((\d{8})|(\d{10})|(\d{11})|(\d{6}-\d{5}))?$
(assert (not (str.in_re X (re.++ (re.opt (re.union ((_ re.loop 8 8) (re.range "0" "9")) ((_ re.loop 10 10) (re.range "0" "9")) ((_ re.loop 11 11) (re.range "0" "9")) (re.++ ((_ re.loop 6 6) (re.range "0" "9")) (str.to_re "-") ((_ re.loop 5 5) (re.range "0" "9"))))) (str.to_re "\u{0a}")))))
(assert (> (str.len X) 10))
(check-sat)
